JulietBench/Juliet_Based_Patch_Bench/qemu/CWE-369-Divide-By-Zero/CVE_2014_0142_9302e863aa8baa5d932fc078967050c055fa1a7f/Resultparallels_open_Snippet_patch2EQ.smt2
; benchmark generated from python API
(set-info :status unknown)
(declare-fun R () (_ BitVec 32))
(declare-fun rdi () (_ BitVec 64))
(assert
 (let (($x57 (= (_ bv513 32) R)))
 (let ((?x65 ((_ extract 22 0) rdi)))
 (let ((?x69 (concat ?x65 (_ bv0 9))))
 (let ((?x6 ((_ extract 31 0) rdi)))
 (let ((?x70 (bvadd ?x6 ?x69)))
 (let (($x54 (= R ?x70)))
 (let (($x11 (bvsge (_ bv4186127 32) ?x6)))
 (let (($x64 (and $x11 $x54)))
 (let (($x45 (= (_ bv4294967269 32) R)))
 (let (($x41 (bvslt (_ bv4186127 32) ?x6)))
 (let (($x50 (and $x41 $x45)))
 (let (($x58 (or $x50 $x64)))
 (and $x58 $x57))))))))))))))
(check-sat)
